interpolants/tmp_sum-pc._msat__msat.txt
unsat
(let ((.def_33 (not (<= max_1 h_1)))) (let ((.def_37 (<= h_1 i_1))) (let ((.def_43 (= v_1 0))) (let ((.def_44 (= max_0 max_1))) (let ((.def_845 (<= 1 (+ h_1 (* (- 1) i_1))))) (let ((.def_846 (and .def_33 .def_845))) (let ((.def_850 (not (= pc_0 3)))) (let ((.def_857 (<= 1 (+ h_0 (* (- 1) i_0))))) (let ((.def_871 (not (= v_0 1)))) (let ((.def_882 (<= y_1 y_0))) (let ((.def_885 (<= y_0 y_1))) (let ((.def_897 (and (and .def_882 .def_885) (and (<= (+ y_0 (* (- 2) y_1)) 0) (<= 0 (+ y_0 (* (- 2) y_1))))))) (let ((.def_938 (and .def_845 (not (and (= pc_1 2) (not .def_37)))))) (let ((.def_942 (and .def_43 (and .def_845 (and .def_846 (and .def_845 (and .def_33 .def_43))))))) (and .def_33 (and .def_845 (or .def_37 (and .def_846 (and (and .def_44 (= i_0 i_1)) (and .def_850 (and (not (= pc_1 3)) (and .def_857 (and (and .def_850 .def_857) (and .def_938 (and .def_845 (and (not (= pc_0 2)) (and (<= 2 (+ max_0 (* (- 1) i_0))) (and .def_871 (and (and .def_938 .def_942) (and (and .def_897 (and (and .def_897 (and .def_882 (<= 0 (+ (* 2 y_0) (* (- 1) y_1))))) (and .def_885 (<= (+ (* 2 y_0) (* (- 1) y_1)) 0)))) (and .def_871 (and .def_44 .def_942))))))))))))))))))))))))))))))))
(let ((.def_967 (not (= pcp_0 3)))) (let ((.def_973 (<= 1 (+ hp_0 (* (- 1) ip_0))))) (let ((.def_989 (not (= vp_0 1)))) (let ((.def_990 (not (= vp_1 1)))) (let ((.def_1006 (<= (+ yp_1 (* (- 2) yp_0)) 0))) (let ((.def_1009 (<= 0 (+ yp_1 (* (- 2) yp_0))))) (let ((.def_1017 (and (and .def_1006 .def_1009) (and (<= yp_0 yp_1) (<= yp_1 yp_0))))) (let ((.def_1051 (and .def_990 (and (and .def_990 (<= (+ hp_1 (* (- 1) maxp_1)) (- 1))) (not (and (<= hp_1 ip_1) (= pcp_1 0))))))) (and (not (= maxp_0 ip_0)) (and .def_967 (and .def_973 (and (and .def_967 .def_973) (and (<= (+ ip_1 (* (- 1) maxp_1)) (- 1)) (and (not (= pcp_0 2)) (and (<= 2 (+ maxp_0 (* (- 1) ip_0))) (and .def_989 (and .def_1051 (and (and .def_1017 (and (and .def_1017 (and .def_1006 (<= (+ yp_1 (* (- 4) yp_0)) 0))) (and .def_1009 (<= 0 (+ yp_1 (* (- 4) yp_0)))))) (and .def_989 (and (= maxp_1 maxp_0) .def_1051))))))))))))))))))))
(let ((.def_194 (= vpp_1 1))) (let ((.def_1067 (not (= pcpp_0 3)))) (let ((.def_1073 (<= 1 (+ hpp_0 (* (- 1) ipp_0))))) (let ((.def_1083 (not (= vpp_0 1)))) (let ((.def_1091 (and (not .def_194) (<= (+ ipp_1 (* (- 1) maxpp_1)) (- 1))))) (let ((.def_1096 (<= (+ ypp_1 (* (- 2) ypp_0)) 0))) (let ((.def_1099 (<= 0 (+ ypp_1 (* (- 2) ypp_0))))) (let ((.def_1107 (and (and .def_1096 .def_1099) (and (<= ypp_0 ypp_1) (<= ypp_1 ypp_0))))) (let ((.def_1124 (= ipp_1 maxpp_0))) (and (not (= maxpp_0 ipp_0)) (and .def_1067 (and .def_1073 (and (and .def_1067 .def_1073) (and (not (= pcpp_0 2)) (and (<= 2 (+ maxpp_0 (* (- 1) ipp_0))) (and .def_1083 (or .def_1091 (and (and .def_1107 (and (and .def_1107 (and .def_1096 (<= (+ ypp_1 (* (- 4) ypp_0)) 0))) (and .def_1099 (<= 0 (+ ypp_1 (* (- 4) ypp_0)))))) (and .def_1083 (not (and (not (and .def_194 (and (not (= ipp_1 maxpp_1)) (not .def_1124)))) (and .def_1124 (not .def_1091)))))))))))))))))))))))
(let ((.def_303 (= ippp_1 maxppp_1))) (let ((.def_400 (= vppp_0 1))) (let ((.def_1164 (not (= pcppp_0 3)))) (let ((.def_1170 (<= 1 (+ hppp_0 (* (- 1) ippp_0))))) (let ((.def_1184 (<= (+ yppp_1 (* (- 4) yppp_0)) 0))) (let ((.def_1189 (<= 0 (+ yppp_1 (* (- 4) yppp_0))))) (let ((.def_1198 (and (and .def_1184 .def_1189) (and (<= 0 (+ yppp_1 (* (- 2) yppp_0))) (<= (+ yppp_1 (* (- 2) yppp_0)) 0))))) (not (and (not (<= 1 (+ hppp_1 (* (- 1) ippp_1)))) (and (not (= pcppp_1 1)) (not (and (not (= maxppp_0 ippp_0)) (and .def_1164 (and .def_1170 (and (and .def_1164 .def_1170) (and (not (= pcppp_0 2)) (and (<= 2 (+ maxppp_0 (* (- 1) ippp_0))) (and (not .def_400) (not (and .def_303 (and (not (and .def_1198 (and (and .def_1198 (and .def_1184 (<= (+ yppp_1 (* (- 8) yppp_0)) 0))) (and .def_1189 (<= 0 (+ yppp_1 (* (- 8) yppp_0))))))) (or .def_400 (and .def_303 (= ippp_1 maxppp_0))))))))))))))))))))))))
(let ((.def_1264 (not (= vpppp_0 1)))) (let ((.def_1265 (= maxpppp_1 ipppp_1))) (let ((.def_1272 (<= 0 (+ (* 2 ypppp_0) (* (- 1) ypppp_1))))) (let ((.def_1275 (<= (+ (* 2 ypppp_0) (* (- 1) ypppp_1)) 0))) (let ((.def_1283 (and (and .def_1272 .def_1275) (and (<= ypppp_0 ypppp_1) (<= ypppp_1 ypppp_0))))) (not (and (not (<= 1 (+ hpppp_1 (* (- 1) ipppp_1)))) (and (not (= pcpppp_1 1)) (not (and (<= (+ ipppp_0 (* (- 1) maxpppp_0)) (- 1)) (and .def_1264 (not (and .def_1265 (and (not (and .def_1283 (and (and .def_1283 (and .def_1272 (<= 0 (+ (* 4 ypppp_0) (* (- 1) ypppp_1))))) (and .def_1275 (<= (+ (* 4 ypppp_0) (* (- 1) ypppp_1)) 0))))) (not (and (not (and (<= hpppp_0 ipppp_0) (= pcpppp_0 0))) (and .def_1264 (not (and .def_1265 (= maxpppp_0 ipppp_1))))))))))))))))))))
(let ((.def_1337 (= maxppppp_1 ippppp_1))) (let ((.def_1344 (<= 0 (+ (* 2 yppppp_0) (* (- 1) yppppp_1))))) (let ((.def_1347 (<= (+ (* 2 yppppp_0) (* (- 1) yppppp_1)) 0))) (let ((.def_1351 (<= yppppp_0 yppppp_1))) (let ((.def_1353 (<= yppppp_1 yppppp_0))) (let ((.def_1355 (and (and .def_1344 .def_1347) (and .def_1351 .def_1353)))) (not (and (not (<= 1 (+ hppppp_1 (* (- 1) ippppp_1)))) (and (not (= pcppppp_1 1)) (and .def_1337 (and (and (not .def_1355) (not (and (or .def_1355 (and .def_1344 .def_1353)) (and .def_1347 .def_1351)))) (or (and (= ippppp_0 maxppppp_0) (not (<= (+ ippppp_0 (* (- 1) maxppppp_0)) (- 1)))) (and (= vppppp_0 1) (and .def_1337 (= maxppppp_0 ippppp_1)))))))))))))))
(let ((.def_665 (= maxpppppp_1 ipppppp_1))) (let ((.def_830 (<= ypppppp_0 ypppppp_1))) (let ((.def_831 (<= ypppppp_1 ypppppp_0))) (let ((.def_1416 (and .def_830 .def_831))) (not (and (not (<= 1 (+ hpppppp_0 (* (- 1) ipppppp_0)))) (and (not (<= 1 (+ hpppppp_1 (* (- 1) ipppppp_1)))) (and (not (= pcpppppp_0 1)) (and (not (= pcpppppp_1 1)) (and .def_665 (and (and (not .def_1416) (not (and .def_830 (or .def_831 .def_1416)))) (and (= ipppppp_0 maxpppppp_0) (and .def_665 (= maxpppppp_0 ipppppp_1))))))))))))))
